# Objective value = 3.0248195010086511e+02
x[0] 1
x[1] 1
x[2] 1
x[3] 0
x[4] 0
x[5] 0
x[6] 0
x[7] 0
x[8] 0
x[9] 1
x[10] 0
x[11] 1
x[12] 0
x[13] 0
x[14] 1
x[15] 0
x[16] 1.0000001778447323e+00
x[17] 0
x[18] 1
x[19] 0
x[20] 1
x[21] -1.9413305836706009e-07
x[22] 1
x[23] 0
x[24] 1
x[25] 0
x[26] 1
x[27] 0
x[28] 0
x[29] 0
x[30] 9.9999969702861780e-01
x[31] 0
x[32] 0
x[33] 0
x[34] 1
x[35] 0
x[36] 0
x[37] 1
x[38] 0
x[39] 0
x[40] 1
x[41] 1
x[42] 1.1638489417244155e-07
x[43] 0
x[44] 0
x[45] 1
x[46] 1
x[47] 0
x[48] 1
x[49] 1
x[50] 1
x[51] 1
x[52] 1
x[53] -1.9413305807347569e-07
x[54] 0
x[55] 1.0000001777103005e+00
x[56] 1
x[57] -2.9119958739341869e-07
x[58] 1
x[59] 1
x[60] 0
x[61] 1
x[62] 1
x[63] 0
x[64] 0
x[65] 0
x[66] 0
x[67] 0
x[68] 9.9999988352016489e-01
x[69] 1
x[70] 1
x[71] 0
x[72] 1
x[73] 0
x[74] 0
x[75] 0
x[76] 0
x[77] 0
x[78] 0
x[79] 1
x[80] 0
x[81] 0
x[82] 1
x[83] 1
x[84] 9.9999982861358083e-01
x[85] 1
x[86] 1
x[87] 1
x[88] 0
x[89] 1
x[90] 0
x[91] 1
x[92] 1
x[93] 0
x[94] 0
x[95] -1.7795530338204912e-07
x[96] 0
x[97] 0
x[98] 0
x[99] 1
x[100] 0
x[101] 1
x[102] 1
x[103] 9.9999966467899726e-01
x[104] 1
x[105] 0
x[106] 1
x[107] 1
x[108] -2.9119958755430275e-07
x[109] 0
x[110] 1
x[111] 0
x[112] 0
x[113] 0
x[114] 0
x[115] 0
x[116] 1
x[117] 0
x[118] 0
x[119] 0
x[120] 0
x[121] 1
x[122] 0
x[123] 1
x[124] 0
x[125] 0
x[126] 2.4902456837673976e-07
x[127] 9.9999988352016478e-01
x[128] 2.2879661968634124e-07
x[129] 1
x[130] 0
x[131] 1
x[132] 0
x[133] 0
x[134] 0
x[135] 1
x[136] 1.0000001682886916e+00
x[137] 1
x[138] 1
x[139] 1
x[140] 0
x[141] 0
x[142] -3.0297138223710030e-07
x[143] 1
x[144] 1
x[145] 0
x[146] 0
x[147] 0
x[148] 0
x[149] 1
x[150] 1
x[151] 0
x[152] 0
x[153] 1
x[154] 0
x[155] 1
x[156] 1
x[157] 0
x[158] 1
x[159] 1
x[160] 1
x[161] 0
x[162] 1
x[163] 1
x[164] -1.7795530343144944e-07
x[165] 1
x[166] 1
x[167] 1
x[168] 1.7376876101453750e-07
x[169] 1
x[170] 0
x[171] 0
x[172] 1
x[173] 1
x[174] 1
x[175] 0
x[176] 1
x[177] 1.0000001163201091e+00
x[178] 1
x[179] 1
x[180] 0
x[181] 0
x[182] 1
x[183] 1
x[184] 1
x[185] 0
x[186] 1
x[187] 0
x[188] 0
x[189] 0
x[190] 1
x[191] 0
x[192] 0
x[193] 1
x[194] 1.0559744459837734e-07
x[195] 1
x[196] 0
x[197] -1.1239735299049689e-07
x[198] 0
x[199] 1
x[200] 1
x[201] 0
x[202] 1.7457399007190807e-07
x[203] 2.3283207086005631e-07
x[204] 0
x[205] 0
x[206] 1
x[207] 1
x[208] 1
x[209] 1
x[210] 1
x[211] 0
x[212] 9.9999966467899726e-01
x[213] 0
x[214] 1
x[215] 1
x[216] 0
x[217] 1
x[218] 1.1631161325959282e-07
x[219] 1.1629814995753731e-07
x[220] 0
x[221] 1
x[222] 1
x[223] 1
x[224] 0
x[225] -2.8786625422096942e-07
x[226] 0
x[227] 0
x[228] 9.9999988352016489e-01
x[229] 0
x[230] 9.9999982851579650e-01
x[231] 0
x[232] 1
x[233] 1
x[234] 1
x[235] 1
x[236] 1
x[237] 0
x[238] 1
x[239] 1.1615254710168783e-07
x[240] 1.0000002803454315e+00
x[241] 0
x[242] 1
x[243] 3.3836558815068379e-07
x[244] 1
x[245] 0
x[246] 0
x[247] 0
x[248] 0
x[249] 1
x[250] 1
x[251] 0
x[252] 0
x[253] 0.999999847466883
x[254] 1
x[255] 1
x[256] 1
x[257] 1
x[258] 0
x[259] 0
x[260] 1
x[261] 1
x[262] 0
x[263] 1
x[264] 0
x[265] 1
x[266] 1
x[267] 0
x[268] 0
x[269] 1
x[270] 1
x[271] 1.1210494345812972e-07
x[272] 0
x[273] 1
x[274] 0
x[275] 1
x[276] 0
x[277] 0
x[278] 1
x[279] 1
x[280] 0
x[281] 0
x[282] 0
x[283] 1
x[284] 1
x[285] 1
x[286] 0
x[287] 1
x[288] 0
x[289] 1
x[290] 1
x[291] 1.0000001940612198e+00
x[292] 1
x[293] 0
x[294] 1
x[295] 0
x[296] 0.999999767040329
x[297] 1
x[298] 1
x[299] -1.9413305798246756e-07
x[300] 1
x[301] 1
x[302] 1
x[303] 0
x[304] 1
x[305] 1
x[306] 0
x[307] 0
x[308] 0
x[309] 0
x[310] 1.5210482030072884e-07
x[311] 0
x[312] 1
x[313] 1
x[314] 0
x[315] 1
x[316] 1
x[317] 0
x[318] 0
x[319] 0
x[320] 1
x[321] 1
x[322] 0
x[323] 0
x[324] 1
x[325] -1.9079972496218696e-07
x[326] 0
x[327] 0
x[328] 0
x[329] 0
x[330] 1
x[331] 1
x[332] 0
x[333] 0
x[334] 1
x[335] 1
x[336] 1
x[337] 0
x[338] 1
x[339] 1
x[340] 1
x[341] 0
x[342] 0
x[343] 1.0000001938488789e+00
x[344] 0
x[345] 1
x[346] 1
x[347] 1
x[348] 1
x[349] 9.9999982861358083e-01
x[350] 0
x[351] 0
x[352] 1
x[353] 0
x[354] 0.99999988702172
x[355] 0
x[356] 1
x[357] 1
x[358] 0
x[359] -2.6845294731783704e-07
x[360] 1
x[361] 1
x[362] 0
x[363] 1.0000001940647507e+00
x[364] 1
x[365] 0
x[366] 1
x[367] 0
x[368] 1
x[369] 1
x[370] 1
x[371] 1
x[372] 1
x[373] 1
x[374] 1
x[375] 1
x[376] 0
x[377] 0
x[378] 0
x[379] 1
x[380] 1
x[381] 0
x[382] 1
x[383] 1.0000001940533159e+00
x[384] 1
x[385] 0
x[386] 0
x[387] 1
x[388] 0
x[389] 0
x[390] 0
x[391] 1.0000003061970288e+00
x[392] 0
x[393] 1
x[394] 0
x[395] 0
x[396] 1
x[397] 1
x[398] 1
x[399] 1
x[400] 0
x[401] 1
x[402] 1
x[403] 0
x[404] 1
x[405] 0
x[406] 0
x[407] 1
x[408] 0
x[409] 0
x[410] 0
x[411] 0
x[412] 9.9999977050126243e-01
x[413] 0
x[414] 0
x[415] -1.9106936159934364e-07
x[416] -1.9413305807347569e-07
x[417] 0
x[418] 2.3288347947464055e-07
x[419] 0
x[420] 1
x[421] 0
x[422] -1.9413305798246756e-07
x[423] 1
x[424] 0
x[425] 1
x[426] 1
x[427] 0
x[428] 0
x[429] 0
x[430] 1
x[431] 0
x[432] 1
x[433] 1
x[434] 1
x[435] 0
x[436] 0
x[437] 1
x[438] 1
x[439] 1
x[440] 1
x[441] 1
x[442] 0
x[443] 0
x[444] 0
x[445] 0
x[446] 0
x[447] 1
x[448] 1
x[449] 1
x[450] 1
x[451] 1
x[452] 1
x[453] 9.9999977037366239e-01
x[454] 0
x[455] 1
x[456] 2.3276998809824150e-07
x[457] 0
x[458] 1
x[459] 0
x[460] 0
x[461] -1.9413305826227910e-07
x[462] 1
x[463] 0
x[464] 0
x[465] 0
x[466] 1
x[467] 1
x[468] 1
x[469] 0
x[470] 0
x[471] 0
x[472] 1
x[473] 0
x[474] 1
x[475] 0
x[476] 0
x[477] 0
x[478] 0
x[479] 0
x[480] 1
x[481] 1
x[482] 0
x[483] 1
x[484] 9.9999988685349839e-01
x[485] 1.0000001940643244e+00
x[486] 1
x[487] -3.8493278359308313e-07
x[488] 0
x[489] 1
x[490] 1
x[491] 0
x[492] 1.0000001940480336e+00
x[493] 0
x[494] -2.9119958755430275e-07
x[495] 0
x[496] 0
x[497] 1
x[498] 0
x[499] -1.9079972534186840e-07
x[500] 1
x[501] 0
x[502] 1
x[503] 0
x[504] 1
x[505] -3.0630471559156547e-07
x[506] 0
x[507] 1
x[508] 0
x[509] 1.0000002910540611e+00
x[510] 1
x[511] 1
x[512] 1
x[513] 1
x[514] 0
x[515] 0
x[516] 1
x[517] 1
x[518] 1
x[519] 1
x[520] 0
x[521] 1
x[522] 1
x[523] -1.9413305829552030e-07
x[524] 0
x[525] 0
x[526] 1
x[527] 0
x[528] 0
x[529] 1
x[530] 1
x[531] 0
x[532] -1.9413305807347569e-07
x[533] 1
x[534] 0
x[535] 1
x[536] 0
x[537] 1
x[538] 1
x[539] 1
x[540] 1
x[541] 1
x[542] 1
x[543] 0
x[544] 1
x[545] 0
x[546] 0
x[547] 1.1629596758770101e-07
x[548] 0
x[549] 1
x[550] 1.0000001940381995e+00
x[551] 0
x[552] 0
x[553] 0
x[554] 0
x[555] 1
x[556] 1
x[557] 0
x[558] 0
x[559] 0
x[560] 0
x[561] 2.3278711802714130e-07
x[562] 1
x[563] 0
x[564] 0
x[565] 1
x[566] 0
x[567] 1
x[568] 0
x[569] 0
x[570] 1
x[571] 9.9999977037366239e-01
x[572] 0
x[573] 1
x[574] 1
x[575] -1.9010046917607768e-07
x[576] 1
x[577] 0
x[578] 0
x[579] -1.7795530338204912e-07
x[580] 1
x[581] 0
x[582] 0
x[583] 0
x[584] 0
x[585] 1.0000001940681811e+00
x[586] 1
x[587] 1
x[588] 0
x[589] 0
x[590] 1
x[591] 1
x[592] -2.8041441768404151e-07
x[593] 3.3857202154935261e-07
x[594] 0
x[595] 0
x[596] 0
x[597] 1
x[598] 0
x[599] 0
x[600] 0
x[601] 1
x[602] 1
x[603] 0
x[604] 0
x[605] 0
x[606] 1
x[607] 1
x[608] 1
x[609] 0
x[610] 1
x[611] 0
x[612] 0
x[613] 1
x[614] 1
x[615] 0
x[616] 1
x[617] 1
x[618] 0
x[619] 1
x[620] 1.1591107715572347e-07
x[621] 1.7461875488960447e-07
x[622] 1
x[623] 0
x[624] 0
x[625] 0
x[626] 0
x[627] 0
x[628] 2.3268353014974821e-07
x[629] 0
x[630] 0
x[631] 1.0000002911320787e+00
x[632] 3.0604414909427442e-07
x[633] 2.3289332246212587e-07
x[634] 0
x[635] 3.3813564382182414e-07
x[636] 0
x[637] 1.0000001777841299e+00
x[638] 1
x[639] 0
x[640] 0
x[641] 1.0000001940601386e+00
x[642] 1
x[643] 1
x[644] 1
x[645] 0
x[646] 0
x[647] 9.9999965820200487e-01
x[648] 1
x[649] 1
x[650] 1
x[651] 0
x[652] 0
x[653] 1
x[654] 0
x[655] 0
x[656] 0
x[657] -2.3119521993811787e-07
x[658] 0
x[659] 0
x[660] 0
x[661] 1
x[662] 0
x[663] 0
x[664] 1
x[665] 0
x[666] 0
x[667] 0
x[668] 1
x[669] 0
x[670] 1
x[671] 0
x[672] 1
x[673] 1
x[674] 0
x[675] 0
x[676] 0
x[677] 1
x[678] 0
x[679] 1.2031253465933172e-07
x[680] 9.9999988841914444e-01
x[681] 0
x[682] 0
x[683] 1
x[684] 0
x[685] 0
x[686] 1
x[687] 0
x[688] 0
x[689] 1
x[690] 0
x[691] 1
x[692] 1
x[693] 0
x[694] 0
x[695] 1
x[696] 0
x[697] 0
x[698] 0
x[699] 0
x[700] 1
x[701] 0
x[702] 1
x[703] 1
x[704] 0
x[705] 0
x[706] 1
x[707] 1
x[708] 1
x[709] 9.9999989430533487e-01
x[710] 0
x[711] 1
x[712] 1
x[713] 0
x[714] 0
x[715] -1.9413305807347569e-07
x[716] 0
x[717] 1
x[718] 1
x[719] 0
x[720] 0
x[721] 1
x[722] 0
x[723] 1
x[724] 0
x[725] 1
x[726] 0
x[727] 0
x[728] 0
x[729] 1
x[730] 1
x[731] 0
x[732] 1
x[733] 1
x[734] 0
x[735] 0
x[736] 0
x[737] 1
x[738] 0
x[739] 0
x[740] 0
x[741] 1
x[742] 1
x[743] 0
x[744] 9.9999982875934323e-01
x[745] 0
x[746] 1
x[747] 0
x[748] 0
x[749] 0
x[750] 0
x[751] 0
x[752] 1
x[753] 0
x[754] 1
x[755] 0
x[756] 0
x[757] -1.7387282056645042e-07
x[758] 1
x[759] 1
x[760] 1
x[761] 0
x[762] 1
x[763] 1
x[764] -1.7795530343144944e-07
x[765] 0
x[766] 1
x[767] -1.9413305807347569e-07
x[768] 0
x[769] 0
x[770] 0
x[771] 1
x[772] 1
x[773] 9.9999988685349828e-01
x[774] 0
x[775] 0
x[776] 1
x[777] 1
x[778] 1
x[779] 0
x[780] 0
x[781] 1
x[782] 0
x[783] 1
x[784] 1
x[785] 1
x[786] 1
x[787] 1.0000001940650665e+00
x[788] 0
x[789] 1
x[790] 0
x[791] 1
x[792] 0
x[793] 1
x[794] 0
x[795] 0
x[796] 1
x[797] 1
x[798] 1
x[799] 1
x[800] 1.0000001778317824e+00
x[801] 1
x[802] 0
x[803] 0
x[804] 1.2064966136791781e-07
x[805] 0
x[806] 0
x[807] 1
x[808] 0
x[809] 1
x[810] 1
x[811] 1
x[812] 1
x[813] 1.7463637207568377e-07
x[814] 1
x[815] 0
x[816] 0
x[817] 0
x[818] 1
x[819] 1
x[820] 0
x[821] 0
x[822] 0
x[823] 0
x[824] 1.7460098901619779e-07
x[825] -1.1647983511053894e-07
x[826] 1
x[827] 1
x[828] 1
x[829] 0
x[830] 0
x[831] 0
x[832] 0
x[833] 0
x[834] 0
x[835] 1
x[836] 0
x[837] -1.9079972515099034e-07
x[838] 0
x[839] 1
x[840] 1
x[841] 0
x[842] 0
x[843] 1
x[844] 0.999999883520165
x[845] -1.7795530347108904e-07
x[846] 0
x[847] 1
x[848] -1.9413305826227915e-07
x[849] 0
x[850] 0
x[851] 1
x[852] 0
x[853] 1
x[854] 1
x[855] 1
x[856] 1
x[857] 0
x[858] 0
x[859] 1
x[860] 0
x[861] 1
x[862] 0
x[863] 0
x[864] 0
x[865] 1
x[866] 0
x[867] 1
x[868] 1
x[869] 1
x[870] 1
x[871] 0
x[872] 1
x[873] 1.1632985872967887e-07
x[874] 0
x[875] 1.0000002909359718e+00
x[876] 0
x[877] 1
x[878] 0
x[879] 0
x[880] 0
x[881] 0
x[882] 0
x[883] 0
x[884] 1
x[885] 2.3283373637859938e-07
x[886] 1
x[887] 1
x[888] 0
x[889] 1
x[890] 1
x[891] 1
x[892] 1
x[893] 0
x[894] 0
x[895] 0
x[896] 1.1640686242526715e-07
x[897] 1
x[898] 1
x[899] 1
x[900] 0
x[901] 1
x[902] 1
x[903] 0
x[904] 0
x[905] 0
x[906] 0
x[907] 1
x[908] 1.0000001940593646e+00
x[909] 1
x[910] 0
x[911] 0
x[912] 1
x[913] 1
x[914] 0
x[915] 1
x[916] 0
x[917] 1
x[918] 1
x[919] 9.9999982871457849e-01
x[920] 0
x[921] 1
x[922] 0
x[923] 0
x[924] 9.9999987921198652e-01
x[925] 0
x[926] 0
x[927] 0
x[928] 1
x[929] 1
x[930] 0
x[931] 0
x[932] 0
x[933] 0
x[934] 0
x[935] 0
x[936] 1
x[937] 1
x[938] 1
x[939] 0
x[940] 1
x[941] 1
x[942] 0
x[943] 1
x[944] 0
x[945] 1
x[946] 1.0000001940570122e+00
x[947] 1
x[948] 1
x[949] 1
x[950] 1
x[951] 1
x[952] 1
x[953] 1
x[954] 0
x[955] 0
x[956] 1
x[957] 1
x[958] 1
x[959] 1
x[960] 1
x[961] 1
x[962] 1
x[963] 0
x[964] 0
x[965] 1
x[966] 1
x[967] -1.9413305829552030e-07
x[968] 1
x[969] 1
x[970] 1
x[971] 1
x[972] 0
x[973] 0
x[974] 1.0000001778197176e+00
x[975] 0
x[976] 1
x[977] 1
x[978] 1.0000001940167409e+00
x[979] 0
x[980] 1
x[981] 0
x[982] 1
x[983] 0
x[984] 1
x[985] 1
x[986] 0
x[987] 9.9999977037366250e-01
x[988] 3.4492123787579875e-07
x[989] 0
x[990] 1
x[991] 0
x[992] 1
x[993] 1
x[994] 0
x[995] 1
x[996] 1
x[997] 0
x[998] 1
x[999] 0
